VRPTWMS/instances/mip/fuel/5/N5-C_DV100-C_SV25_F5_1_No_1.lp
\ N5-C_DV100-C_SV25_F5_1

Minimize
  27.29 x_d0_c1 + 27.29 z_d0_c1 + 14.76 x_d0_c2 + 14.76 z_d0_c2 + 20.02 x_d0_c3 + 20.02 z_d0_c3 + 24.02 x_d0_c4 + 24.02 z_d0_c4 + 25.06 x_d0_c5 + 25.06 z_d0_c5 + 42.06 x_c1_c2 + 42.06 x_c2_c1 + 42.06 z_c1_c2 + 42.06 z_c2_c1 + 41.4 x_c1_c3 + 41.4 x_c3_c1 + 41.4 z_c1_c3 + 41.4 z_c3_c1 + 49.48 x_c1_c4 + 49.48 x_c4_c1 + 49.48 z_c1_c4 + 49.48 z_c4_c1 + 25.08 x_c1_c5 + 25.08 x_c5_c1 + 25.08 z_c1_c5 + 25.08 z_c5_c1 + 17.69 x_c2_c3 + 17.69 x_c3_c2 + 17.69 z_c2_c3 + 17.69 z_c3_c2 + 13.6 x_c2_c4 + 13.6 x_c4_c2 + 13.6 z_c2_c4 + 13.6 z_c4_c2 + 35.36 x_c2_c5 + 35.36 x_c5_c2 + 35.36 z_c2_c5 + 35.36 z_c5_c2 + 31.14 x_c3_c4 + 31.14 x_c4_c3 + 31.14 z_c3_c4 + 31.14 z_c4_c3 + 24.35 x_c3_c5 + 24.35 x_c5_c3 + 24.35 z_c3_c5 + 24.35 z_c5_c3 + 47.8 x_c4_c5 + 47.8 x_c5_c4 + 47.8 z_c4_c5 + 47.8 z_c5_c4 + 27.29 x_c1_dN + 27.29 z_c1_dN + 14.76 x_c2_dN + 14.76 z_c2_dN + 20.02 x_c3_dN + 20.02 z_c3_dN + 24.02 x_c4_dN + 24.02 z_c4_dN + 25.06 x_c5_dN + 25.06 z_c5_dN + 1000.0 x_d0_c1 + 1000.0 z_d0_c1 + 1000.0 x_d0_c2 + 1000.0 z_d0_c2 + 1000.0 x_d0_c3 + 1000.0 z_d0_c3 + 1000.0 x_d0_c4 + 1000.0 z_d0_c4 + 1000.0 x_d0_c5 + 1000.0 z_d0_c5
Subject To
  Successor_DV_c1: x_c1_c2 + x_c1_c3 + x_c1_c4 + x_c1_c5 + x_c1_dN = 1
  Successor_DV_c2: x_c2_c1 + x_c2_c3 + x_c2_c4 + x_c2_c5 + x_c2_dN = 1
  Successor_DV_c3: x_c3_c1 + x_c3_c2 + x_c3_c4 + x_c3_c5 + x_c3_dN = 1
  Successor_DV_c4: x_c4_c1 + x_c4_c2 + x_c4_c3 + x_c4_c5 + x_c4_dN = 1
  Successor_DV_c5: x_c5_c1 + x_c5_c2 + x_c5_c3 + x_c5_c4 + x_c5_dN = 1
  Successor_SV_c1: z_c1_c2 + z_c1_c3 + z_c1_c4 + z_c1_c5 + z_c1_dN <= 1
  Successor_SV_c2: z_c2_c1 + z_c2_c3 + z_c2_c4 + z_c2_c5 + z_c2_dN <= 1
  Successor_SV_c3: z_c3_c1 + z_c3_c2 + z_c3_c4 + z_c3_c5 + z_c3_dN <= 1
  Successor_SV_c4: z_c4_c1 + z_c4_c2 + z_c4_c3 + z_c4_c5 + z_c4_dN <= 1
  Successor_SV_c5: z_c5_c1 + z_c5_c2 + z_c5_c3 + z_c5_c4 + z_c5_dN <= 1
  Flow_DV_c1: x_d0_c1 + x_c2_c1 + x_c3_c1 + x_c4_c1 + x_c5_c1 - x_c1_dN - x_c1_c2 - x_c1_c3 - x_c1_c4 - x_c1_c5 = 0
  Flow_DV_c2: x_d0_c2 + x_c1_c2 + x_c3_c2 + x_c4_c2 + x_c5_c2 - x_c2_dN - x_c2_c1 - x_c2_c3 - x_c2_c4 - x_c2_c5 = 0
  Flow_DV_c3: x_d0_c3 + x_c1_c3 + x_c2_c3 + x_c4_c3 + x_c5_c3 - x_c3_dN - x_c3_c1 - x_c3_c2 - x_c3_c4 - x_c3_c5 = 0
  Flow_DV_c4: x_d0_c4 + x_c1_c4 + x_c2_c4 + x_c3_c4 + x_c5_c4 - x_c4_dN - x_c4_c1 - x_c4_c2 - x_c4_c3 - x_c4_c5 = 0
  Flow_DV_c5: x_d0_c5 + x_c1_c5 + x_c2_c5 + x_c3_c5 + x_c4_c5 - x_c5_dN - x_c5_c1 - x_c5_c2 - x_c5_c3 - x_c5_c4 = 0
  Flow_SV_c1: z_d0_c1 + z_c2_c1 + z_c3_c1 + z_c4_c1 + z_c5_c1 - z_c1_dN - z_c1_c2 - z_c1_c3 - z_c1_c4 - z_c1_c5 = 0
  Flow_SV_c2: z_d0_c2 + z_c1_c2 + z_c3_c2 + z_c4_c2 + z_c5_c2 - z_c2_dN - z_c2_c1 - z_c2_c3 - z_c2_c4 - z_c2_c5 = 0
  Flow_SV_c3: z_d0_c3 + z_c1_c3 + z_c2_c3 + z_c4_c3 + z_c5_c3 - z_c3_dN - z_c3_c1 - z_c3_c2 - z_c3_c4 - z_c3_c5 = 0
  Flow_SV_c4: z_d0_c4 + z_c1_c4 + z_c2_c4 + z_c3_c4 + z_c5_c4 - z_c4_dN - z_c4_c1 - z_c4_c2 - z_c4_c3 - z_c4_c5 = 0
  Flow_SV_c5: z_d0_c5 + z_c1_c5 + z_c2_c5 + z_c3_c5 + z_c4_c5 - z_c5_dN - z_c5_c1 - z_c5_c2 - z_c5_c3 - z_c5_c4 = 0
  travelDV_d0_c1: tauD_d0 - tauD_c1 + 106.8225 x_d0_c1 <= 100.0
  travelDV_d0_c2: tauD_d0 - tauD_c2 + 103.69 x_d0_c2 <= 100.0
  travelDV_d0_c3: tauD_d0 - tauD_c3 + 105.005 x_d0_c3 <= 100.0
  travelDV_d0_c4: tauD_d0 - tauD_c4 + 106.005 x_d0_c4 <= 100.0
  travelDV_d0_c5: tauD_d0 - tauD_c5 + 106.265 x_d0_c5 <= 100.0
  travelDV_c1_c2: tauD_c1 - tauD_c2 + 113.515 x_c1_c2 + 8.0 p_1 <= 100.0
  travelDV_c1_c3: tauD_c1 - tauD_c3 + 113.35 x_c1_c3 + 8.0 p_1 <= 100.0
  travelDV_c1_c4: tauD_c1 - tauD_c4 + 115.37 x_c1_c4 + 8.0 p_1 <= 100.0
  travelDV_c1_c5: tauD_c1 - tauD_c5 + 109.27 x_c1_c5 + 8.0 p_1 <= 100.0
  travelDV_c2_c1: tauD_c2 - tauD_c1 + 114.515 x_c2_c1 + 8.0 p_2 <= 100.0
  travelDV_c2_c3: tauD_c2 - tauD_c3 + 108.4225 x_c2_c3 + 8.0 p_2 <= 100.0
  travelDV_c2_c4: tauD_c2 - tauD_c4 + 107.4 x_c2_c4 + 8.0 p_2 <= 100.0
  travelDV_c2_c5: tauD_c2 - tauD_c5 + 112.84 x_c2_c5 + 8.0 p_2 <= 100.0
  travelDV_c3_c1: tauD_c3 - tauD_c1 + 118.35 x_c3_c1 + 8.0 p_3 <= 100.0
  travelDV_c3_c2: tauD_c3 - tauD_c2 + 112.4225 x_c3_c2 + 8.0 p_3 <= 100.0
  travelDV_c3_c4: tauD_c3 - tauD_c4 + 115.785 x_c3_c4 + 8.0 p_3 <= 100.0
  travelDV_c3_c5: tauD_c3 - tauD_c5 + 114.0875 x_c3_c5 + 8.0 p_3 <= 100.0
  travelDV_c4_c1: tauD_c4 - tauD_c1 + 119.37 x_c4_c1 + 8.0 p_4 <= 100.0
  travelDV_c4_c2: tauD_c4 - tauD_c2 + 110.4 x_c4_c2 + 8.0 p_4 <= 100.0
  travelDV_c4_c3: tauD_c4 - tauD_c3 + 114.785 x_c4_c3 + 8.0 p_4 <= 100.0
  travelDV_c4_c5: tauD_c4 - tauD_c5 + 118.95 x_c4_c5 + 8.0 p_4 <= 100.0
  travelDV_c5_c1: tauD_c5 - tauD_c1 + 112.27 x_c5_c1 + 8.0 p_5 <= 100.0
  travelDV_c5_c2: tauD_c5 - tauD_c2 + 114.84 x_c5_c2 + 8.0 p_5 <= 100.0
  travelDV_c5_c3: tauD_c5 - tauD_c3 + 112.0875 x_c5_c3 + 8.0 p_5 <= 100.0
  travelDV_c5_c4: tauD_c5 - tauD_c4 + 117.95 x_c5_c4 + 8.0 p_5 <= 100.0
  TravelSV_d0_c1: tauS_d0 - tauS_c1 + 100.0 z_d0_c1 <= 93.1775
  TravelSV_d0_c2: tauS_d0 - tauS_c2 + 100.0 z_d0_c2 <= 96.31
  TravelSV_d0_c3: tauS_d0 - tauS_c3 + 100.0 z_d0_c3 <= 94.995
  TravelSV_d0_c4: tauS_d0 - tauS_c4 + 100.0 z_d0_c4 <= 93.995
  TravelSV_d0_c5: tauS_d0 - tauS_c5 + 100.0 z_d0_c5 <= 93.735
  TravelSV_d0_dN: tauS_d0 - tauS_dN + 100.0 z_d0_dN <= 100.0
  TravelSV_c1_c2: tauS_c1 - tauS_c2 + 100.0 z_c1_c2 <= 81.485
  TravelSV_c1_c3: tauS_c1 - tauS_c3 + 100.0 z_c1_c3 <= 81.65
  TravelSV_c1_c4: tauS_c1 - tauS_c4 + 100.0 z_c1_c4 <= 79.63
  TravelSV_c1_c5: tauS_c1 - tauS_c5 + 100.0 z_c1_c5 <= 85.73
  TravelSV_c1_dN: tauS_c1 - tauS_dN + 100.0 z_c1_dN <= 85.1775
  TravelSV_c2_c1: tauS_c2 - tauS_c1 + 100.0 z_c2_c1 <= 81.485
  TravelSV_c2_c3: tauS_c2 - tauS_c3 + 100.0 z_c2_c3 <= 87.5775
  TravelSV_c2_c4: tauS_c2 - tauS_c4 + 100.0 z_c2_c4 <= 88.6
  TravelSV_c2_c5: tauS_c2 - tauS_c5 + 100.0 z_c2_c5 <= 83.16
  TravelSV_c2_dN: tauS_c2 - tauS_dN + 100.0 z_c2_dN <= 88.31
  TravelSV_c3_c1: tauS_c3 - tauS_c1 + 100.0 z_c3_c1 <= 81.65
  TravelSV_c3_c2: tauS_c3 - tauS_c2 + 100.0 z_c3_c2 <= 87.5775
  TravelSV_c3_c4: tauS_c3 - tauS_c4 + 100.0 z_c3_c4 <= 84.215
  TravelSV_c3_c5: tauS_c3 - tauS_c5 + 100.0 z_c3_c5 <= 85.9125
  TravelSV_c3_dN: tauS_c3 - tauS_dN + 100.0 z_c3_dN <= 86.995
  TravelSV_c4_c1: tauS_c4 - tauS_c1 + 100.0 z_c4_c1 <= 79.63
  TravelSV_c4_c2: tauS_c4 - tauS_c2 + 100.0 z_c4_c2 <= 88.6
  TravelSV_c4_c3: tauS_c4 - tauS_c3 + 100.0 z_c4_c3 <= 84.215
  TravelSV_c4_c5: tauS_c4 - tauS_c5 + 100.0 z_c4_c5 <= 80.05
  TravelSV_c4_dN: tauS_c4 - tauS_dN + 100.0 z_c4_dN <= 85.995
  TravelSV_c5_c1: tauS_c5 - tauS_c1 + 100.0 z_c5_c1 <= 85.73
  TravelSV_c5_c2: tauS_c5 - tauS_c2 + 100.0 z_c5_c2 <= 83.16
  TravelSV_c5_c3: tauS_c5 - tauS_c3 + 100.0 z_c5_c3 <= 85.9125
  TravelSV_c5_c4: tauS_c5 - tauS_c4 + 100.0 z_c5_c4 <= 80.05
  TravelSV_c5_dN: tauS_c5 - tauS_dN + 100.0 z_c5_dN <= 85.735
  time_window_c1_e: tauD_c1 + 8.0 o_1 >= 0.0
  time_window_c1_l: tauD_c1 + 8.0 o_1 <= 100.0
  time_window_c2_e: tauD_c2 + 8.0 o_2 >= 0.0
  time_window_c2_l: tauD_c2 + 8.0 o_2 <= 100.0
  time_window_c3_e: tauD_c3 + 8.0 o_3 >= 0.0
  time_window_c3_l: tauD_c3 + 8.0 o_3 <= 100.0
  time_window_c4_e: tauD_c4 + 8.0 o_4 >= 0.0
  time_window_c4_l: tauD_c4 + 8.0 o_4 <= 100.0
  time_window_c5_e: tauD_c5 + 8.0 o_5 >= 0.0
  time_window_c5_l: tauD_c5 + 8.0 o_5 <= 100.0
  SyncA_c1_c2_c2: 3.0 o_1 + 100.0 x_c1_c2 - tauD_c2 - 10.515 z_c1_c2 + [ tauS_c2 * z_c1_c2 ] <= 89.485
  SyncA_c1_c2_c3: 3.0 o_1 + 100.0 x_c1_c2 - tauD_c2 - 10.35 z_c1_c3 + [ tauS_c3 * z_c1_c3 ] <= 89.485
  SyncA_c1_c2_c4: 3.0 o_1 + 100.0 x_c1_c2 - tauD_c2 - 12.37 z_c1_c4 + [ tauS_c4 * z_c1_c4 ] <= 89.485
  SyncA_c1_c2_c5: 3.0 o_1 + 100.0 x_c1_c2 - tauD_c2 - 6.27 z_c1_c5 + [ tauS_c5 * z_c1_c5 ] <= 89.485
  SyncA_c1_c2_dN: 3.0 o_1 + 100.0 x_c1_c2 - tauD_c2 - 6.8225 z_c1_dN + [ tauS_dN * z_c1_dN ] <= 89.485
  SyncA_c1_c3_c2: 3.0 o_1 + 100.0 x_c1_c3 - tauD_c3 - 10.515 z_c1_c2 + [ tauS_c2 * z_c1_c2 ] <= 89.65
  SyncA_c1_c3_c3: 3.0 o_1 + 100.0 x_c1_c3 - tauD_c3 - 10.35 z_c1_c3 + [ tauS_c3 * z_c1_c3 ] <= 89.65
  SyncA_c1_c3_c4: 3.0 o_1 + 100.0 x_c1_c3 - tauD_c3 - 12.37 z_c1_c4 + [ tauS_c4 * z_c1_c4 ] <= 89.65
  SyncA_c1_c3_c5: 3.0 o_1 + 100.0 x_c1_c3 - tauD_c3 - 6.27 z_c1_c5 + [ tauS_c5 * z_c1_c5 ] <= 89.65
  SyncA_c1_c3_dN: 3.0 o_1 + 100.0 x_c1_c3 - tauD_c3 - 6.8225 z_c1_dN + [ tauS_dN * z_c1_dN ] <= 89.65
  SyncA_c1_c4_c2: 3.0 o_1 + 100.0 x_c1_c4 - tauD_c4 - 10.515 z_c1_c2 + [ tauS_c2 * z_c1_c2 ] <= 87.63
  SyncA_c1_c4_c3: 3.0 o_1 + 100.0 x_c1_c4 - tauD_c4 - 10.35 z_c1_c3 + [ tauS_c3 * z_c1_c3 ] <= 87.63
  SyncA_c1_c4_c4: 3.0 o_1 + 100.0 x_c1_c4 - tauD_c4 - 12.37 z_c1_c4 + [ tauS_c4 * z_c1_c4 ] <= 87.63
  SyncA_c1_c4_c5: 3.0 o_1 + 100.0 x_c1_c4 - tauD_c4 - 6.27 z_c1_c5 + [ tauS_c5 * z_c1_c5 ] <= 87.63
  SyncA_c1_c4_dN: 3.0 o_1 + 100.0 x_c1_c4 - tauD_c4 - 6.8225 z_c1_dN + [ tauS_dN * z_c1_dN ] <= 87.63
  SyncA_c1_c5_c2: 3.0 o_1 + 100.0 x_c1_c5 - tauD_c5 - 10.515 z_c1_c2 + [ tauS_c2 * z_c1_c2 ] <= 93.73
  SyncA_c1_c5_c3: 3.0 o_1 + 100.0 x_c1_c5 - tauD_c5 - 10.35 z_c1_c3 + [ tauS_c3 * z_c1_c3 ] <= 93.73
  SyncA_c1_c5_c4: 3.0 o_1 + 100.0 x_c1_c5 - tauD_c5 - 12.37 z_c1_c4 + [ tauS_c4 * z_c1_c4 ] <= 93.73
  SyncA_c1_c5_c5: 3.0 o_1 + 100.0 x_c1_c5 - tauD_c5 - 6.27 z_c1_c5 + [ tauS_c5 * z_c1_c5 ] <= 93.73
  SyncA_c1_c5_dN: 3.0 o_1 + 100.0 x_c1_c5 - tauD_c5 - 6.8225 z_c1_dN + [ tauS_dN * z_c1_dN ] <= 93.73
  SyncA_c1_dN_c2: 3.0 o_1 + 100.0 x_c1_dN - tauD_dN - 10.515 z_c1_c2 + [ tauS_c2 * z_c1_c2 ] <= 93.1775
  SyncA_c1_dN_c3: 3.0 o_1 + 100.0 x_c1_dN - tauD_dN - 10.35 z_c1_c3 + [ tauS_c3 * z_c1_c3 ] <= 93.1775
  SyncA_c1_dN_c4: 3.0 o_1 + 100.0 x_c1_dN - tauD_dN - 12.37 z_c1_c4 + [ tauS_c4 * z_c1_c4 ] <= 93.1775
  SyncA_c1_dN_c5: 3.0 o_1 + 100.0 x_c1_dN - tauD_dN - 6.27 z_c1_c5 + [ tauS_c5 * z_c1_c5 ] <= 93.1775
  SyncA_c1_dN_dN: 3.0 o_1 + 100.0 x_c1_dN - tauD_dN - 6.8225 z_c1_dN + [ tauS_dN * z_c1_dN ] <= 93.1775
  SyncA_c2_c1_c1: 4.0 o_2 + 100.0 x_c2_c1 - tauD_c1 - 10.515 z_c2_c1 + [ tauS_c1 * z_c2_c1 ] <= 89.485
  SyncA_c2_c1_c3: 4.0 o_2 + 100.0 x_c2_c1 - tauD_c1 - 4.4225 z_c2_c3 + [ tauS_c3 * z_c2_c3 ] <= 89.485
  SyncA_c2_c1_c4: 4.0 o_2 + 100.0 x_c2_c1 - tauD_c1 - 3.4 z_c2_c4 + [ tauS_c4 * z_c2_c4 ] <= 89.485
  SyncA_c2_c1_c5: 4.0 o_2 + 100.0 x_c2_c1 - tauD_c1 - 8.84 z_c2_c5 + [ tauS_c5 * z_c2_c5 ] <= 89.485
  SyncA_c2_c1_dN: 4.0 o_2 + 100.0 x_c2_c1 - tauD_c1 - 3.69 z_c2_dN + [ tauS_dN * z_c2_dN ] <= 89.485
  SyncA_c2_c3_c1: 4.0 o_2 + 100.0 x_c2_c3 - tauD_c3 - 10.515 z_c2_c1 + [ tauS_c1 * z_c2_c1 ] <= 95.5775
  SyncA_c2_c3_c3: 4.0 o_2 + 100.0 x_c2_c3 - tauD_c3 - 4.4225 z_c2_c3 + [ tauS_c3 * z_c2_c3 ] <= 95.5775
  SyncA_c2_c3_c4: 4.0 o_2 + 100.0 x_c2_c3 - tauD_c3 - 3.4 z_c2_c4 + [ tauS_c4 * z_c2_c4 ] <= 95.5775
  SyncA_c2_c3_c5: 4.0 o_2 + 100.0 x_c2_c3 - tauD_c3 - 8.84 z_c2_c5 + [ tauS_c5 * z_c2_c5 ] <= 95.5775
  SyncA_c2_c3_dN: 4.0 o_2 + 100.0 x_c2_c3 - tauD_c3 - 3.69 z_c2_dN + [ tauS_dN * z_c2_dN ] <= 95.5775
  SyncA_c2_c4_c1: 4.0 o_2 + 100.0 x_c2_c4 - tauD_c4 - 10.515 z_c2_c1 + [ tauS_c1 * z_c2_c1 ] <= 96.6
  SyncA_c2_c4_c3: 4.0 o_2 + 100.0 x_c2_c4 - tauD_c4 - 4.4225 z_c2_c3 + [ tauS_c3 * z_c2_c3 ] <= 96.6
  SyncA_c2_c4_c4: 4.0 o_2 + 100.0 x_c2_c4 - tauD_c4 - 3.4 z_c2_c4 + [ tauS_c4 * z_c2_c4 ] <= 96.6
  SyncA_c2_c4_c5: 4.0 o_2 + 100.0 x_c2_c4 - tauD_c4 - 8.84 z_c2_c5 + [ tauS_c5 * z_c2_c5 ] <= 96.6
  SyncA_c2_c4_dN: 4.0 o_2 + 100.0 x_c2_c4 - tauD_c4 - 3.69 z_c2_dN + [ tauS_dN * z_c2_dN ] <= 96.6
  SyncA_c2_c5_c1: 4.0 o_2 + 100.0 x_c2_c5 - tauD_c5 - 10.515 z_c2_c1 + [ tauS_c1 * z_c2_c1 ] <= 91.16
  SyncA_c2_c5_c3: 4.0 o_2 + 100.0 x_c2_c5 - tauD_c5 - 4.4225 z_c2_c3 + [ tauS_c3 * z_c2_c3 ] <= 91.16
  SyncA_c2_c5_c4: 4.0 o_2 + 100.0 x_c2_c5 - tauD_c5 - 3.4 z_c2_c4 + [ tauS_c4 * z_c2_c4 ] <= 91.16
  SyncA_c2_c5_c5: 4.0 o_2 + 100.0 x_c2_c5 - tauD_c5 - 8.84 z_c2_c5 + [ tauS_c5 * z_c2_c5 ] <= 91.16
  SyncA_c2_c5_dN: 4.0 o_2 + 100.0 x_c2_c5 - tauD_c5 - 3.69 z_c2_dN + [ tauS_dN * z_c2_dN ] <= 91.16
  SyncA_c2_dN_c1: 4.0 o_2 + 100.0 x_c2_dN - tauD_dN - 10.515 z_c2_c1 + [ tauS_c1 * z_c2_c1 ] <= 96.31
  SyncA_c2_dN_c3: 4.0 o_2 + 100.0 x_c2_dN - tauD_dN - 4.4225 z_c2_c3 + [ tauS_c3 * z_c2_c3 ] <= 96.31
  SyncA_c2_dN_c4: 4.0 o_2 + 100.0 x_c2_dN - tauD_dN - 3.4 z_c2_c4 + [ tauS_c4 * z_c2_c4 ] <= 96.31
  SyncA_c2_dN_c5: 4.0 o_2 + 100.0 x_c2_dN - tauD_dN - 8.84 z_c2_c5 + [ tauS_c5 * z_c2_c5 ] <= 96.31
  SyncA_c2_dN_dN: 4.0 o_2 + 100.0 x_c2_dN - tauD_dN - 3.69 z_c2_dN + [ tauS_dN * z_c2_dN ] <= 96.31
  SyncA_c3_c1_c1: 8.0 o_3 + 100.0 x_c3_c1 - tauD_c1 - 10.35 z_c3_c1 + [ tauS_c1 * z_c3_c1 ] <= 89.65
  SyncA_c3_c1_c2: 8.0 o_3 + 100.0 x_c3_c1 - tauD_c1 - 4.4225 z_c3_c2 + [ tauS_c2 * z_c3_c2 ] <= 89.65
  SyncA_c3_c1_c4: 8.0 o_3 + 100.0 x_c3_c1 - tauD_c1 - 7.785 z_c3_c4 + [ tauS_c4 * z_c3_c4 ] <= 89.65
  SyncA_c3_c1_c5: 8.0 o_3 + 100.0 x_c3_c1 - tauD_c1 - 6.0875 z_c3_c5 + [ tauS_c5 * z_c3_c5 ] <= 89.65
  SyncA_c3_c1_dN: 8.0 o_3 + 100.0 x_c3_c1 - tauD_c1 - 5.005 z_c3_dN + [ tauS_dN * z_c3_dN ] <= 89.65
  SyncA_c3_c2_c1: 8.0 o_3 + 100.0 x_c3_c2 - tauD_c2 - 10.35 z_c3_c1 + [ tauS_c1 * z_c3_c1 ] <= 95.5775
  SyncA_c3_c2_c2: 8.0 o_3 + 100.0 x_c3_c2 - tauD_c2 - 4.4225 z_c3_c2 + [ tauS_c2 * z_c3_c2 ] <= 95.5775
  SyncA_c3_c2_c4: 8.0 o_3 + 100.0 x_c3_c2 - tauD_c2 - 7.785 z_c3_c4 + [ tauS_c4 * z_c3_c4 ] <= 95.5775
  SyncA_c3_c2_c5: 8.0 o_3 + 100.0 x_c3_c2 - tauD_c2 - 6.0875 z_c3_c5 + [ tauS_c5 * z_c3_c5 ] <= 95.5775
  SyncA_c3_c2_dN: 8.0 o_3 + 100.0 x_c3_c2 - tauD_c2 - 5.005 z_c3_dN + [ tauS_dN * z_c3_dN ] <= 95.5775
  SyncA_c3_c4_c1: 8.0 o_3 + 100.0 x_c3_c4 - tauD_c4 - 10.35 z_c3_c1 + [ tauS_c1 * z_c3_c1 ] <= 92.215
  SyncA_c3_c4_c2: 8.0 o_3 + 100.0 x_c3_c4 - tauD_c4 - 4.4225 z_c3_c2 + [ tauS_c2 * z_c3_c2 ] <= 92.215
  SyncA_c3_c4_c4: 8.0 o_3 + 100.0 x_c3_c4 - tauD_c4 - 7.785 z_c3_c4 + [ tauS_c4 * z_c3_c4 ] <= 92.215
  SyncA_c3_c4_c5: 8.0 o_3 + 100.0 x_c3_c4 - tauD_c4 - 6.0875 z_c3_c5 + [ tauS_c5 * z_c3_c5 ] <= 92.215
  SyncA_c3_c4_dN: 8.0 o_3 + 100.0 x_c3_c4 - tauD_c4 - 5.005 z_c3_dN + [ tauS_dN * z_c3_dN ] <= 92.215
  SyncA_c3_c5_c1: 8.0 o_3 + 100.0 x_c3_c5 - tauD_c5 - 10.35 z_c3_c1 + [ tauS_c1 * z_c3_c1 ] <= 93.9125
  SyncA_c3_c5_c2: 8.0 o_3 + 100.0 x_c3_c5 - tauD_c5 - 4.4225 z_c3_c2 + [ tauS_c2 * z_c3_c2 ] <= 93.9125
  SyncA_c3_c5_c4: 8.0 o_3 + 100.0 x_c3_c5 - tauD_c5 - 7.785 z_c3_c4 + [ tauS_c4 * z_c3_c4 ] <= 93.9125
  SyncA_c3_c5_c5: 8.0 o_3 + 100.0 x_c3_c5 - tauD_c5 - 6.0875 z_c3_c5 + [ tauS_c5 * z_c3_c5 ] <= 93.9125
  SyncA_c3_c5_dN: 8.0 o_3 + 100.0 x_c3_c5 - tauD_c5 - 5.005 z_c3_dN + [ tauS_dN * z_c3_dN ] <= 93.9125
  SyncA_c3_dN_c1: 8.0 o_3 + 100.0 x_c3_dN - tauD_dN - 10.35 z_c3_c1 + [ tauS_c1 * z_c3_c1 ] <= 94.995
  SyncA_c3_dN_c2: 8.0 o_3 + 100.0 x_c3_dN - tauD_dN - 4.4225 z_c3_c2 + [ tauS_c2 * z_c3_c2 ] <= 94.995
  SyncA_c3_dN_c4: 8.0 o_3 + 100.0 x_c3_dN - tauD_dN - 7.785 z_c3_c4 + [ tauS_c4 * z_c3_c4 ] <= 94.995
  SyncA_c3_dN_c5: 8.0 o_3 + 100.0 x_c3_dN - tauD_dN - 6.0875 z_c3_c5 + [ tauS_c5 * z_c3_c5 ] <= 94.995
  SyncA_c3_dN_dN: 8.0 o_3 + 100.0 x_c3_dN - tauD_dN - 5.005 z_c3_dN + [ tauS_dN * z_c3_dN ] <= 94.995
  SyncA_c4_c1_c1: 7.0 o_4 + 100.0 x_c4_c1 - tauD_c1 - 12.37 z_c4_c1 + [ tauS_c1 * z_c4_c1 ] <= 87.63
  SyncA_c4_c1_c2: 7.0 o_4 + 100.0 x_c4_c1 - tauD_c1 - 3.4 z_c4_c2 + [ tauS_c2 * z_c4_c2 ] <= 87.63
  SyncA_c4_c1_c3: 7.0 o_4 + 100.0 x_c4_c1 - tauD_c1 - 7.785 z_c4_c3 + [ tauS_c3 * z_c4_c3 ] <= 87.63
  SyncA_c4_c1_c5: 7.0 o_4 + 100.0 x_c4_c1 - tauD_c1 - 11.95 z_c4_c5 + [ tauS_c5 * z_c4_c5 ] <= 87.63
  SyncA_c4_c1_dN: 7.0 o_4 + 100.0 x_c4_c1 - tauD_c1 - 6.005 z_c4_dN + [ tauS_dN * z_c4_dN ] <= 87.63
  SyncA_c4_c2_c1: 7.0 o_4 + 100.0 x_c4_c2 - tauD_c2 - 12.37 z_c4_c1 + [ tauS_c1 * z_c4_c1 ] <= 96.6
  SyncA_c4_c2_c2: 7.0 o_4 + 100.0 x_c4_c2 - tauD_c2 - 3.4 z_c4_c2 + [ tauS_c2 * z_c4_c2 ] <= 96.6
  SyncA_c4_c2_c3: 7.0 o_4 + 100.0 x_c4_c2 - tauD_c2 - 7.785 z_c4_c3 + [ tauS_c3 * z_c4_c3 ] <= 96.6
  SyncA_c4_c2_c5: 7.0 o_4 + 100.0 x_c4_c2 - tauD_c2 - 11.95 z_c4_c5 + [ tauS_c5 * z_c4_c5 ] <= 96.6
  SyncA_c4_c2_dN: 7.0 o_4 + 100.0 x_c4_c2 - tauD_c2 - 6.005 z_c4_dN + [ tauS_dN * z_c4_dN ] <= 96.6
  SyncA_c4_c3_c1: 7.0 o_4 + 100.0 x_c4_c3 - tauD_c3 - 12.37 z_c4_c1 + [ tauS_c1 * z_c4_c1 ] <= 92.215
  SyncA_c4_c3_c2: 7.0 o_4 + 100.0 x_c4_c3 - tauD_c3 - 3.4 z_c4_c2 + [ tauS_c2 * z_c4_c2 ] <= 92.215
  SyncA_c4_c3_c3: 7.0 o_4 + 100.0 x_c4_c3 - tauD_c3 - 7.785 z_c4_c3 + [ tauS_c3 * z_c4_c3 ] <= 92.215
  SyncA_c4_c3_c5: 7.0 o_4 + 100.0 x_c4_c3 - tauD_c3 - 11.95 z_c4_c5 + [ tauS_c5 * z_c4_c5 ] <= 92.215
  SyncA_c4_c3_dN: 7.0 o_4 + 100.0 x_c4_c3 - tauD_c3 - 6.005 z_c4_dN + [ tauS_dN * z_c4_dN ] <= 92.215
  SyncA_c4_c5_c1: 7.0 o_4 + 100.0 x_c4_c5 - tauD_c5 - 12.37 z_c4_c1 + [ tauS_c1 * z_c4_c1 ] <= 88.05
  SyncA_c4_c5_c2: 7.0 o_4 + 100.0 x_c4_c5 - tauD_c5 - 3.4 z_c4_c2 + [ tauS_c2 * z_c4_c2 ] <= 88.05
  SyncA_c4_c5_c3: 7.0 o_4 + 100.0 x_c4_c5 - tauD_c5 - 7.785 z_c4_c3 + [ tauS_c3 * z_c4_c3 ] <= 88.05
  SyncA_c4_c5_c5: 7.0 o_4 + 100.0 x_c4_c5 - tauD_c5 - 11.95 z_c4_c5 + [ tauS_c5 * z_c4_c5 ] <= 88.05
  SyncA_c4_c5_dN: 7.0 o_4 + 100.0 x_c4_c5 - tauD_c5 - 6.005 z_c4_dN + [ tauS_dN * z_c4_dN ] <= 88.05
  SyncA_c4_dN_c1: 7.0 o_4 + 100.0 x_c4_dN - tauD_dN - 12.37 z_c4_c1 + [ tauS_c1 * z_c4_c1 ] <= 93.995
  SyncA_c4_dN_c2: 7.0 o_4 + 100.0 x_c4_dN - tauD_dN - 3.4 z_c4_c2 + [ tauS_c2 * z_c4_c2 ] <= 93.995
  SyncA_c4_dN_c3: 7.0 o_4 + 100.0 x_c4_dN - tauD_dN - 7.785 z_c4_c3 + [ tauS_c3 * z_c4_c3 ] <= 93.995
  SyncA_c4_dN_c5: 7.0 o_4 + 100.0 x_c4_dN - tauD_dN - 11.95 z_c4_c5 + [ tauS_c5 * z_c4_c5 ] <= 93.995
  SyncA_c4_dN_dN: 7.0 o_4 + 100.0 x_c4_dN - tauD_dN - 6.005 z_c4_dN + [ tauS_dN * z_c4_dN ] <= 93.995
  SyncA_c5_c1_c1: 6.0 o_5 + 100.0 x_c5_c1 - tauD_c1 - 6.27 z_c5_c1 + [ tauS_c1 * z_c5_c1 ] <= 93.73
  SyncA_c5_c1_c2: 6.0 o_5 + 100.0 x_c5_c1 - tauD_c1 - 8.84 z_c5_c2 + [ tauS_c2 * z_c5_c2 ] <= 93.73
  SyncA_c5_c1_c3: 6.0 o_5 + 100.0 x_c5_c1 - tauD_c1 - 6.0875 z_c5_c3 + [ tauS_c3 * z_c5_c3 ] <= 93.73
  SyncA_c5_c1_c4: 6.0 o_5 + 100.0 x_c5_c1 - tauD_c1 - 11.95 z_c5_c4 + [ tauS_c4 * z_c5_c4 ] <= 93.73
  SyncA_c5_c1_dN: 6.0 o_5 + 100.0 x_c5_c1 - tauD_c1 - 6.265 z_c5_dN + [ tauS_dN * z_c5_dN ] <= 93.73
  SyncA_c5_c2_c1: 6.0 o_5 + 100.0 x_c5_c2 - tauD_c2 - 6.27 z_c5_c1 + [ tauS_c1 * z_c5_c1 ] <= 91.16
  SyncA_c5_c2_c2: 6.0 o_5 + 100.0 x_c5_c2 - tauD_c2 - 8.84 z_c5_c2 + [ tauS_c2 * z_c5_c2 ] <= 91.16
  SyncA_c5_c2_c3: 6.0 o_5 + 100.0 x_c5_c2 - tauD_c2 - 6.0875 z_c5_c3 + [ tauS_c3 * z_c5_c3 ] <= 91.16
  SyncA_c5_c2_c4: 6.0 o_5 + 100.0 x_c5_c2 - tauD_c2 - 11.95 z_c5_c4 + [ tauS_c4 * z_c5_c4 ] <= 91.16
  SyncA_c5_c2_dN: 6.0 o_5 + 100.0 x_c5_c2 - tauD_c2 - 6.265 z_c5_dN + [ tauS_dN * z_c5_dN ] <= 91.16
  SyncA_c5_c3_c1: 6.0 o_5 + 100.0 x_c5_c3 - tauD_c3 - 6.27 z_c5_c1 + [ tauS_c1 * z_c5_c1 ] <= 93.9125
  SyncA_c5_c3_c2: 6.0 o_5 + 100.0 x_c5_c3 - tauD_c3 - 8.84 z_c5_c2 + [ tauS_c2 * z_c5_c2 ] <= 93.9125
  SyncA_c5_c3_c3: 6.0 o_5 + 100.0 x_c5_c3 - tauD_c3 - 6.0875 z_c5_c3 + [ tauS_c3 * z_c5_c3 ] <= 93.9125
  SyncA_c5_c3_c4: 6.0 o_5 + 100.0 x_c5_c3 - tauD_c3 - 11.95 z_c5_c4 + [ tauS_c4 * z_c5_c4 ] <= 93.9125
  SyncA_c5_c3_dN: 6.0 o_5 + 100.0 x_c5_c3 - tauD_c3 - 6.265 z_c5_dN + [ tauS_dN * z_c5_dN ] <= 93.9125
  SyncA_c5_c4_c1: 6.0 o_5 + 100.0 x_c5_c4 - tauD_c4 - 6.27 z_c5_c1 + [ tauS_c1 * z_c5_c1 ] <= 88.05
  SyncA_c5_c4_c2: 6.0 o_5 + 100.0 x_c5_c4 - tauD_c4 - 8.84 z_c5_c2 + [ tauS_c2 * z_c5_c2 ] <= 88.05
  SyncA_c5_c4_c3: 6.0 o_5 + 100.0 x_c5_c4 - tauD_c4 - 6.0875 z_c5_c3 + [ tauS_c3 * z_c5_c3 ] <= 88.05
  SyncA_c5_c4_c4: 6.0 o_5 + 100.0 x_c5_c4 - tauD_c4 - 11.95 z_c5_c4 + [ tauS_c4 * z_c5_c4 ] <= 88.05
  SyncA_c5_c4_dN: 6.0 o_5 + 100.0 x_c5_c4 - tauD_c4 - 6.265 z_c5_dN + [ tauS_dN * z_c5_dN ] <= 88.05
  SyncA_c5_dN_c1: 6.0 o_5 + 100.0 x_c5_dN - tauD_dN - 6.27 z_c5_c1 + [ tauS_c1 * z_c5_c1 ] <= 93.735
  SyncA_c5_dN_c2: 6.0 o_5 + 100.0 x_c5_dN - tauD_dN - 8.84 z_c5_c2 + [ tauS_c2 * z_c5_c2 ] <= 93.735
  SyncA_c5_dN_c3: 6.0 o_5 + 100.0 x_c5_dN - tauD_dN - 6.0875 z_c5_c3 + [ tauS_c3 * z_c5_c3 ] <= 93.735
  SyncA_c5_dN_c4: 6.0 o_5 + 100.0 x_c5_dN - tauD_dN - 11.95 z_c5_c4 + [ tauS_c4 * z_c5_c4 ] <= 93.735
  SyncA_c5_dN_dN: 6.0 o_5 + 100.0 x_c5_dN - tauD_dN - 6.265 z_c5_dN + [ tauS_dN * z_c5_dN ] <= 93.735
  SVFirst_c1_c2: tauS_c2 - tauD_c1 + 3.0 o_1 - 100.0 z_c1_c2 >= -78.485
  SVFirst_c1_c3: tauS_c3 - tauD_c1 + 3.0 o_1 - 100.0 z_c1_c3 >= -78.65
  SVFirst_c1_c4: tauS_c4 - tauD_c1 + 3.0 o_1 - 100.0 z_c1_c4 >= -76.63
  SVFirst_c1_c5: tauS_c5 - tauD_c1 + 3.0 o_1 - 100.0 z_c1_c5 >= -82.73
  SVFirst_c1_dN:  tauS_dN - tauD_c1 + 3.0 o_1 - 100.0 z_c1_dN >= -82.1775
  SVFirst_c2_c1: tauS_c1 - tauD_c2 + 4.0 o_2 - 100.0 z_c2_c1 >= -77.485
  SVFirst_c2_c3: tauS_c3 - tauD_c2 + 4.0 o_2 - 100.0 z_c2_c3 >= -83.5775
  SVFirst_c2_c4: tauS_c4 - tauD_c2 + 4.0 o_2 - 100.0 z_c2_c4 >= -84.6
  SVFirst_c2_c5: tauS_c5 - tauD_c2 + 4.0 o_2 - 100.0 z_c2_c5 >= -79.16
  SVFirst_c2_dN:  tauS_dN - tauD_c2 + 4.0 o_2 - 100.0 z_c2_dN >= -84.31
  SVFirst_c3_c1: tauS_c1 - tauD_c3 + 8.0 o_3 - 100.0 z_c3_c1 >= -73.65
  SVFirst_c3_c2: tauS_c2 - tauD_c3 + 8.0 o_3 - 100.0 z_c3_c2 >= -79.5775
  SVFirst_c3_c4: tauS_c4 - tauD_c3 + 8.0 o_3 - 100.0 z_c3_c4 >= -76.215
  SVFirst_c3_c5: tauS_c5 - tauD_c3 + 8.0 o_3 - 100.0 z_c3_c5 >= -77.9125
  SVFirst_c3_dN:  tauS_dN - tauD_c3 + 8.0 o_3 - 100.0 z_c3_dN >= -78.995
  SVFirst_c4_c1: tauS_c1 - tauD_c4 + 7.0 o_4 - 100.0 z_c4_c1 >= -72.63
  SVFirst_c4_c2: tauS_c2 - tauD_c4 + 7.0 o_4 - 100.0 z_c4_c2 >= -81.6
  SVFirst_c4_c3: tauS_c3 - tauD_c4 + 7.0 o_4 - 100.0 z_c4_c3 >= -77.215
  SVFirst_c4_c5: tauS_c5 - tauD_c4 + 7.0 o_4 - 100.0 z_c4_c5 >= -73.05
  SVFirst_c4_dN:  tauS_dN - tauD_c4 + 7.0 o_4 - 100.0 z_c4_dN >= -78.995
  SVFirst_c5_c1: tauS_c1 - tauD_c5 + 6.0 o_5 - 100.0 z_c5_c1 >= -79.73
  SVFirst_c5_c2: tauS_c2 - tauD_c5 + 6.0 o_5 - 100.0 z_c5_c2 >= -77.16
  SVFirst_c5_c3: tauS_c3 - tauD_c5 + 6.0 o_5 - 100.0 z_c5_c3 >= -79.9125
  SVFirst_c5_c4: tauS_c4 - tauD_c5 + 6.0 o_5 - 100.0 z_c5_c4 >= -74.05
  SVFirst_c5_dN:  tauS_dN - tauD_c5 + 6.0 o_5 - 100.0 z_c5_dN >= -79.735
  Precedence_Swap_c1:  p_1 - z_d0_c1 - z_c2_c1 - z_c3_c1 - z_c4_c1 - z_c5_c1 = 0
  Precedence_Swap_c2:  p_2 - z_d0_c2 - z_c1_c2 - z_c3_c2 - z_c4_c2 - z_c5_c2 = 0
  Precedence_Swap_c3:  p_3 - z_d0_c3 - z_c1_c3 - z_c2_c3 - z_c4_c3 - z_c5_c3 = 0
  Precedence_Swap_c4:  p_4 - z_d0_c4 - z_c1_c4 - z_c2_c4 - z_c3_c4 - z_c5_c4 = 0
  Precedence_Swap_c5:  p_5 - z_d0_c5 - z_c1_c5 - z_c2_c5 - z_c3_c5 - z_c4_c5 = 0
  Order_c1:  o_1 - p_1 <= 0
  Order_c2:  o_2 - p_2 <= 0
  Order_c3:  o_3 - p_3 <= 0
  Order_c4:  o_4 - p_4 <= 0
  Order_c5:  o_5 - p_5 <= 0
  WorkingTimeS_c1:  tauS_c1 <= 85.1775
  WorkingTimeS_c2:  tauS_c2 <= 88.31
  WorkingTimeS_c3:  tauS_c3 <= 86.995
  WorkingTimeS_c4:  tauS_c4 <= 85.995
  WorkingTimeS_c5:  tauS_c5 <= 85.735
  Freight_c1_c2:  k_c2 - k_c1 + 100.0 x_c1_c2 <= 97.0
  Freight_c1_c3:  k_c3 - k_c1 + 100.0 x_c1_c3 <= 97.0
  Freight_c1_c4:  k_c4 - k_c1 + 100.0 x_c1_c4 <= 97.0
  Freight_c1_c5:  k_c5 - k_c1 + 100.0 x_c1_c5 <= 97.0
  Freight_c1_dN:  k_dN - k_c1 + 100.0 x_c1_dN <= 97.0
  Freight_c2_c1:  k_c1 - k_c2 + 100.0 x_c2_c1 <= 98.0
  Freight_c2_c3:  k_c3 - k_c2 + 100.0 x_c2_c3 <= 98.0
  Freight_c2_c4:  k_c4 - k_c2 + 100.0 x_c2_c4 <= 98.0
  Freight_c2_c5:  k_c5 - k_c2 + 100.0 x_c2_c5 <= 98.0
  Freight_c2_dN:  k_dN - k_c2 + 100.0 x_c2_dN <= 98.0
  Freight_c3_c1:  k_c1 - k_c3 + 100.0 x_c3_c1 <= 96.0
  Freight_c3_c2:  k_c2 - k_c3 + 100.0 x_c3_c2 <= 96.0
  Freight_c3_c4:  k_c4 - k_c3 + 100.0 x_c3_c4 <= 96.0
  Freight_c3_c5:  k_c5 - k_c3 + 100.0 x_c3_c5 <= 96.0
  Freight_c3_dN:  k_dN - k_c3 + 100.0 x_c3_dN <= 96.0
  Freight_c4_c1:  k_c1 - k_c4 + 100.0 x_c4_c1 <= 95.0
  Freight_c4_c2:  k_c2 - k_c4 + 100.0 x_c4_c2 <= 95.0
  Freight_c4_c3:  k_c3 - k_c4 + 100.0 x_c4_c3 <= 95.0
  Freight_c4_c5:  k_c5 - k_c4 + 100.0 x_c4_c5 <= 95.0
  Freight_c4_dN:  k_dN - k_c4 + 100.0 x_c4_dN <= 95.0
  Freight_c5_c1:  k_c1 - k_c5 + 100.0 x_c5_c1 <= 99.0
  Freight_c5_c2:  k_c2 - k_c5 + 100.0 x_c5_c2 <= 99.0
  Freight_c5_c3:  k_c3 - k_c5 + 100.0 x_c5_c3 <= 99.0
  Freight_c5_c4:  k_c4 - k_c5 + 100.0 x_c5_c4 <= 99.0
  Freight_c5_dN:  k_dN - k_c5 + 100.0 x_c5_dN <= 99.0
  FuelDV_d0_c1:  phi_c1 + 6.8257 x_d0_c1 <= 10.0
  FuelDV_d0_c2:  phi_c2 + 5.9874 x_d0_c2 <= 10.0
  FuelDV_d0_c3:  phi_c3 + 6.3393 x_d0_c3 <= 10.0
  FuelDV_d0_c4:  phi_c4 + 6.6068999999999996 x_d0_c4 <= 10.0
  FuelDV_d0_c5:  phi_c5 + 6.6765 x_d0_c5 <= 10.0
  FuelDV_c1_c2:  phi_c2 - phi_c1 + 7.8138000000000005 x_c1_c2 + [ phi_c1 * p_1 - 5.0 x_c1_c2 * p_1 ] <= 5.0
  FuelDV_c1_c3:  phi_c3 - phi_c1 + 7.7697 x_c1_c3 + [ phi_c1 * p_1 - 5.0 x_c1_c3 * p_1 ] <= 5.0
  FuelDV_c1_c4:  phi_c4 - phi_c1 + 8.3102 x_c1_c4 + [ phi_c1 * p_1 - 5.0 x_c1_c4 * p_1 ] <= 5.0
  FuelDV_c1_c5:  phi_c5 - phi_c1 + 6.6779 x_c1_c5 + [ phi_c1 * p_1 - 5.0 x_c1_c5 * p_1 ] <= 5.0
  FuelDV_c1_dN:  phi_dN - phi_c1 + 6.8257 x_c1_dN + [ phi_c1 * p_1 - 5.0 x_c1_dN * p_1 ] <= 5.0
  FuelDV_c2_c1:  phi_c1 - phi_c2 + 7.8138000000000005 x_c2_c1 + [ phi_c2 * p_2 - 5.0 x_c2_c1 * p_2 ] <= 5.0
  FuelDV_c2_c3:  phi_c3 - phi_c2 + 6.1835 x_c2_c3 + [ phi_c2 * p_2 - 5.0 x_c2_c3 * p_2 ] <= 5.0
  FuelDV_c2_c4:  phi_c4 - phi_c2 + 5.9098 x_c2_c4 + [ phi_c2 * p_2 - 5.0 x_c2_c4 * p_2 ] <= 5.0
  FuelDV_c2_c5:  phi_c5 - phi_c2 + 7.365600000000001 x_c2_c5 + [ phi_c2 * p_2 - 5.0 x_c2_c5 * p_2 ] <= 5.0
  FuelDV_c2_dN:  phi_dN - phi_c2 + 5.9874 x_c2_dN + [ phi_c2 * p_2 - 5.0 x_c2_dN * p_2 ] <= 5.0
  FuelDV_c3_c1:  phi_c1 - phi_c3 + 7.7697 x_c3_c1 + [ phi_c3 * p_3 - 5.0 x_c3_c1 * p_3 ] <= 5.0
  FuelDV_c3_c2:  phi_c2 - phi_c3 + 6.1835 x_c3_c2 + [ phi_c3 * p_3 - 5.0 x_c3_c2 * p_3 ] <= 5.0
  FuelDV_c3_c4:  phi_c4 - phi_c3 + 7.0832999999999995 x_c3_c4 + [ phi_c3 * p_3 - 5.0 x_c3_c4 * p_3 ] <= 5.0
  FuelDV_c3_c5:  phi_c5 - phi_c3 + 6.629 x_c3_c5 + [ phi_c3 * p_3 - 5.0 x_c3_c5 * p_3 ] <= 5.0
  FuelDV_c3_dN:  phi_dN - phi_c3 + 6.3393 x_c3_dN + [ phi_c3 * p_3 - 5.0 x_c3_dN * p_3 ] <= 5.0
  FuelDV_c4_c1:  phi_c1 - phi_c4 + 8.3102 x_c4_c1 + [ phi_c4 * p_4 - 5.0 x_c4_c1 * p_4 ] <= 5.0
  FuelDV_c4_c2:  phi_c2 - phi_c4 + 5.9098 x_c4_c2 + [ phi_c4 * p_4 - 5.0 x_c4_c2 * p_4 ] <= 5.0
  FuelDV_c4_c3:  phi_c3 - phi_c4 + 7.0832999999999995 x_c4_c3 + [ phi_c4 * p_4 - 5.0 x_c4_c3 * p_4 ] <= 5.0
  FuelDV_c4_c5:  phi_c5 - phi_c4 + 8.1978 x_c4_c5 + [ phi_c4 * p_4 - 5.0 x_c4_c5 * p_4 ] <= 5.0
  FuelDV_c4_dN:  phi_dN - phi_c4 + 6.6068999999999996 x_c4_dN + [ phi_c4 * p_4 - 5.0 x_c4_dN * p_4 ] <= 5.0
  FuelDV_c5_c1:  phi_c1 - phi_c5 + 6.6779 x_c5_c1 + [ phi_c5 * p_5 - 5.0 x_c5_c1 * p_5 ] <= 5.0
  FuelDV_c5_c2:  phi_c2 - phi_c5 + 7.365600000000001 x_c5_c2 + [ phi_c5 * p_5 - 5.0 x_c5_c2 * p_5 ] <= 5.0
  FuelDV_c5_c3:  phi_c3 - phi_c5 + 6.629 x_c5_c3 + [ phi_c5 * p_5 - 5.0 x_c5_c3 * p_5 ] <= 5.0
  FuelDV_c5_c4:  phi_c4 - phi_c5 + 8.1978 x_c5_c4 + [ phi_c5 * p_5 - 5.0 x_c5_c4 * p_5 ] <= 5.0
  FuelDV_c5_dN:  phi_dN - phi_c5 + 6.6765 x_c5_dN + [ phi_c5 * p_5 - 5.0 x_c5_dN * p_5 ] <= 5.0
  FreightSV_c1_c2:  pi_c2 - pi_c1 - phi_c1 + 25.0 z_c1_c2 <= 20.0
  FreightSV_c1_c3:  pi_c3 - pi_c1 - phi_c1 + 25.0 z_c1_c3 <= 20.0
  FreightSV_c1_c4:  pi_c4 - pi_c1 - phi_c1 + 25.0 z_c1_c4 <= 20.0
  FreightSV_c1_c5:  pi_c5 - pi_c1 - phi_c1 + 25.0 z_c1_c5 <= 20.0
  FreightSV_c1_dN:  pi_dN - pi_c1 - phi_c1 + 25.0 z_c1_dN <= 20.0
  FreightSV_c2_c1:  pi_c1 - pi_c2 - phi_c2 + 25.0 z_c2_c1 <= 20.0
  FreightSV_c2_c3:  pi_c3 - pi_c2 - phi_c2 + 25.0 z_c2_c3 <= 20.0
  FreightSV_c2_c4:  pi_c4 - pi_c2 - phi_c2 + 25.0 z_c2_c4 <= 20.0
  FreightSV_c2_c5:  pi_c5 - pi_c2 - phi_c2 + 25.0 z_c2_c5 <= 20.0
  FreightSV_c2_dN:  pi_dN - pi_c2 - phi_c2 + 25.0 z_c2_dN <= 20.0
  FreightSV_c3_c1:  pi_c1 - pi_c3 - phi_c3 + 25.0 z_c3_c1 <= 20.0
  FreightSV_c3_c2:  pi_c2 - pi_c3 - phi_c3 + 25.0 z_c3_c2 <= 20.0
  FreightSV_c3_c4:  pi_c4 - pi_c3 - phi_c3 + 25.0 z_c3_c4 <= 20.0
  FreightSV_c3_c5:  pi_c5 - pi_c3 - phi_c3 + 25.0 z_c3_c5 <= 20.0
  FreightSV_c3_dN:  pi_dN - pi_c3 - phi_c3 + 25.0 z_c3_dN <= 20.0
  FreightSV_c4_c1:  pi_c1 - pi_c4 - phi_c4 + 25.0 z_c4_c1 <= 20.0
  FreightSV_c4_c2:  pi_c2 - pi_c4 - phi_c4 + 25.0 z_c4_c2 <= 20.0
  FreightSV_c4_c3:  pi_c3 - pi_c4 - phi_c4 + 25.0 z_c4_c3 <= 20.0
  FreightSV_c4_c5:  pi_c5 - pi_c4 - phi_c4 + 25.0 z_c4_c5 <= 20.0
  FreightSV_c4_dN:  pi_dN - pi_c4 - phi_c4 + 25.0 z_c4_dN <= 20.0
  FreightSV_c5_c1:  pi_c1 - pi_c5 - phi_c5 + 25.0 z_c5_c1 <= 20.0
  FreightSV_c5_c2:  pi_c2 - pi_c5 - phi_c5 + 25.0 z_c5_c2 <= 20.0
  FreightSV_c5_c3:  pi_c3 - pi_c5 - phi_c5 + 25.0 z_c5_c3 <= 20.0
  FreightSV_c5_c4:  pi_c4 - pi_c5 - phi_c5 + 25.0 z_c5_c4 <= 20.0
  FreightSV_c5_dN:  pi_dN - pi_c5 - phi_c5 + 25.0 z_c5_dN <= 20.0
  WorkingTimeD_c1:  tauD_c1 + 8.0 p_1 <= 90.1775
  WorkingTimeD_c2:  tauD_c2 + 8.0 p_2 <= 92.31
  WorkingTimeD_c3:  tauD_c3 + 8.0 p_3 <= 86.995
  WorkingTimeD_c4:  tauD_c4 + 8.0 p_4 <= 86.995
  WorkingTimeD_c5:  tauD_c5 + 8.0 p_5 <= 87.735
Bounds
0 <= k_c1 <= 100.0
0 <= k_c2 <= 100.0
0 <= k_c3 <= 100.0
0 <= k_c4 <= 100.0
0 <= k_c5 <= 100.0
0 <= k_dN <= 100.0
0 <= phi_c1 <= 5.0
0 <= phi_c2 <= 5.0
0 <= phi_c3 <= 5.0
0 <= phi_c4 <= 5.0
0 <= phi_c5 <= 5.0
0 <= phi_dN <= 5.0
0 <= pi_c1 <= 25.0
0 <= pi_c2 <= 25.0
0 <= pi_c3 <= 25.0
0 <= pi_c4 <= 25.0
0 <= pi_c5 <= 25.0
0 <= pi_dN <= 25.0
0 <= tauD_c1 <= 100.0
0 <= tauD_c2 <= 100.0
0 <= tauD_c3 <= 100.0
0 <= tauD_c4 <= 100.0
0 <= tauD_c5 <= 100.0
0 <= tauD_d0 <= 100.0
0 <= tauD_dN <= 100.0
0 <= tauS_c1 <= 100.0
0 <= tauS_c2 <= 100.0
0 <= tauS_c3 <= 100.0
0 <= tauS_c4 <= 100.0
0 <= tauS_c5 <= 100.0
0 <= tauS_d0 <= 100.0
0 <= tauS_dN <= 100.0
Generals
  k_c1
  k_c2
  k_c3
  k_c4
  k_c5
  k_dN
  phi_c1
  phi_c2
  phi_c3
  phi_c4
  phi_c5
  phi_dN
  pi_c1
  pi_c2
  pi_c3
  pi_c4
  pi_c5
  pi_dN
  tauD_c1
  tauD_c2
  tauD_c3
  tauD_c4
  tauD_c5
  tauD_d0
  tauD_dN
  tauS_c1
  tauS_c2
  tauS_c3
  tauS_c4
  tauS_c5
  tauS_d0
  tauS_dN
Binary
  o_1
  o_2
  o_3
  o_4
  o_5
  p_1
  p_2
  p_3
  p_4
  p_5
  x_c1_c2
  x_c1_c3
  x_c1_c4
  x_c1_c5
  x_c1_dN
  x_c2_c1
  x_c2_c3
  x_c2_c4
  x_c2_c5
  x_c2_dN
  x_c3_c1
  x_c3_c2
  x_c3_c4
  x_c3_c5
  x_c3_dN
  x_c4_c1
  x_c4_c2
  x_c4_c3
  x_c4_c5
  x_c4_dN
  x_c5_c1
  x_c5_c2
  x_c5_c3
  x_c5_c4
  x_c5_dN
  x_d0_c1
  x_d0_c2
  x_d0_c3
  x_d0_c4
  x_d0_c5
  z_c1_c2
  z_c1_c3
  z_c1_c4
  z_c1_c5
  z_c1_dN
  z_c2_c1
  z_c2_c3
  z_c2_c4
  z_c2_c5
  z_c2_dN
  z_c3_c1
  z_c3_c2
  z_c3_c4
  z_c3_c5
  z_c3_dN
  z_c4_c1
  z_c4_c2
  z_c4_c3
  z_c4_c5
  z_c4_dN
  z_c5_c1
  z_c5_c2
  z_c5_c3
  z_c5_c4
  z_c5_dN
  z_d0_c1
  z_d0_c2
  z_d0_c3
  z_d0_c4
  z_d0_c5
End
